 num_bands       = 3
 num_wann        = 3

!!! Disentanglement parameters !!!
!dis_froz_min     = 7.
!dis_froz_max     = 9.
!dis_mix_ratio    = 0.5

!!! Iterations &c. !!!
 iprint                = 1
 num_iter              = 10000
 num_print_cycles      =   100
 conv_window           = 3
!conv_tol              = 1e-10
 dis_num_iter          = 10000
!dis_conv_window       = 3
!dis_conv_tol          = 1e-10
!restart               = default ! wannierise ! plot ! transport

!!! Post-processing options !!!
 write_proj             = .true.
 write_xyz              = .true.
 translate_home_cell    = .true.
 hr_plot                = .true.
!fermi_surface_plot     = .true.
!dos                    = .false.
!dos_project            =
!dos_kmesh              = 50 50 1
!dos_energy_min         = -1.8
!dos_energy_max         = +1.5

!!! Band structure !!!
!!! needs `kpoint_path' block
!bands_plot             = .true.
 bands_num_points       = 50
!bands_plot_format      = gnuplot xmgrace
!bands_plot_project     = 1-3
!bands_plot_mode        = s-k | cut [Slater-Koster | truncate Hamiltonian]
 
 
begin unit_cell_cart
Bohr
    7.261300    0.000000    0.000000
    0.000000    7.261300    0.000000
    0.000000    0.000000    7.261300
end unit_cell_cart
 
begin atoms_cart
Bohr
   1    0.00000000    0.00000000    0.00000000
   2    3.63065000    3.63065000    3.63065000
   3    0.00000000    3.63065000    3.63065000
   4    3.63065000    0.00000000    3.63065000
   5    3.63065000    3.63065000    0.00000000
end atoms_cart
 
!!! BZ-Path for band structure !!!
bands_plot = F
begin kpoint_path
end kpoint_path
 
!!!! Dummy `projections' block for guiding centres !!!
guiding_centres = T
begin projections
   2:s
   2:s
   2:s
end projections
 
!!! K-Points !!!
mp_grid : 4 4 4
begin kpoints
  0.000000000000000  0.000000000000000  0.000000000000000
  0.000000000000000  0.000000000000000  0.250000000000000
  0.000000000000000  0.000000000000000  0.500000000000000
  0.000000000000000  0.000000000000000  0.750000000000000
  0.000000000000000  0.250000000000000  0.000000000000000
  0.000000000000000  0.250000000000000  0.250000000000000
  0.000000000000000  0.250000000000000  0.500000000000000
  0.000000000000000  0.250000000000000  0.750000000000000
  0.000000000000000  0.500000000000000  0.000000000000000
  0.000000000000000  0.500000000000000  0.250000000000000
  0.000000000000000  0.500000000000000  0.500000000000000
  0.000000000000000  0.500000000000000  0.750000000000000
  0.000000000000000  0.750000000000000  0.000000000000000
  0.000000000000000  0.750000000000000  0.250000000000000
  0.000000000000000  0.750000000000000  0.500000000000000
  0.000000000000000  0.750000000000000  0.750000000000000
  0.250000000000000  0.000000000000000  0.000000000000000
  0.250000000000000  0.000000000000000  0.250000000000000
  0.250000000000000  0.000000000000000  0.500000000000000
  0.250000000000000  0.000000000000000  0.750000000000000
  0.250000000000000  0.250000000000000  0.000000000000000
  0.250000000000000  0.250000000000000  0.250000000000000
  0.250000000000000  0.250000000000000  0.500000000000000
  0.250000000000000  0.250000000000000  0.750000000000000
  0.250000000000000  0.500000000000000  0.000000000000000
  0.250000000000000  0.500000000000000  0.250000000000000
  0.250000000000000  0.500000000000000  0.500000000000000
  0.250000000000000  0.500000000000000  0.750000000000000
  0.250000000000000  0.750000000000000  0.000000000000000
  0.250000000000000  0.750000000000000  0.250000000000000
  0.250000000000000  0.750000000000000  0.500000000000000
  0.250000000000000  0.750000000000000  0.750000000000000
  0.500000000000000  0.000000000000000  0.000000000000000
  0.500000000000000  0.000000000000000  0.250000000000000
  0.500000000000000  0.000000000000000  0.500000000000000
  0.500000000000000  0.000000000000000  0.750000000000000
  0.500000000000000  0.250000000000000  0.000000000000000
  0.500000000000000  0.250000000000000  0.250000000000000
  0.500000000000000  0.250000000000000  0.500000000000000
  0.500000000000000  0.250000000000000  0.750000000000000
  0.500000000000000  0.500000000000000  0.000000000000000
  0.500000000000000  0.500000000000000  0.250000000000000
  0.500000000000000  0.500000000000000  0.500000000000000
  0.500000000000000  0.500000000000000  0.750000000000000
  0.500000000000000  0.750000000000000  0.000000000000000
  0.500000000000000  0.750000000000000  0.250000000000000
  0.500000000000000  0.750000000000000  0.500000000000000
  0.500000000000000  0.750000000000000  0.750000000000000
  0.750000000000000  0.000000000000000  0.000000000000000
  0.750000000000000  0.000000000000000  0.250000000000000
  0.750000000000000  0.000000000000000  0.500000000000000
  0.750000000000000  0.000000000000000  0.750000000000000
  0.750000000000000  0.250000000000000  0.000000000000000
  0.750000000000000  0.250000000000000  0.250000000000000
  0.750000000000000  0.250000000000000  0.500000000000000
  0.750000000000000  0.250000000000000  0.750000000000000
  0.750000000000000  0.500000000000000  0.000000000000000
  0.750000000000000  0.500000000000000  0.250000000000000
  0.750000000000000  0.500000000000000  0.500000000000000
  0.750000000000000  0.500000000000000  0.750000000000000
  0.750000000000000  0.750000000000000  0.000000000000000
  0.750000000000000  0.750000000000000  0.250000000000000
  0.750000000000000  0.750000000000000  0.500000000000000
  0.750000000000000  0.750000000000000  0.750000000000000
end kpoints
